c Generated map
c Size: 9 * 9, weights in range: 1 to 10, walls: True, with ratio 0.1
c dim 7 of 8
c
p sp 81 117
c graph contains 81 nodes and 117 arcs
c
a 1 10 8
a 10 1 8
a 1 2 2
a 2 1 2
a 2 11 4
a 11 2 4
a 2 3 2
a 3 2 2
a 3 12 9
a 12 3 9
a 3 4 9
a 4 3 9
a 4 13 1
a 13 4 1
a 4 5 4
a 5 4 4
a 5 14 6
a 14 5 6
a 5 6 9
a 6 5 9
a 6 15 5
a 15 6 5
a 6 7 6
a 7 6 6
a 7 16 4
a 16 7 4
a 7 8 10
a 8 7 10
a 8 17 10
a 17 8 10
a 10 11 2
a 11 10 2
a 11 12 7
a 12 11 7
a 12 21 1
a 21 12 1
a 12 13 5
a 13 12 5
a 13 22 6
a 22 13 6
a 13 14 10
a 14 13 10
a 14 23 7
a 23 14 7
a 14 15 9
a 15 14 9
a 15 16 4
a 16 15 4
a 16 25 7
a 25 16 7
a 16 17 10
a 17 16 10
a 17 26 2
a 26 17 2
a 17 18 2
a 18 17 2
a 18 27 3
a 27 18 3
a 21 30 3
a 30 21 3
a 21 22 1
a 22 21 1
a 22 31 6
a 31 22 6
a 22 23 1
a 23 22 1
a 23 32 5
a 32 23 5
a 25 34 2
a 34 25 2
a 25 26 8
a 26 25 8
a 26 35 4
a 35 26 4
a 26 27 8
a 27 26 8
a 27 36 7
a 36 27 7
a 28 37 6
a 37 28 6
a 28 29 5
a 29 28 5
a 29 38 8
a 38 29 8
a 29 30 3
a 30 29 3
a 30 39 10
a 39 30 10
a 30 31 2
a 31 30 2
a 31 40 3
a 40 31 3
a 31 32 9
a 32 31 9
a 32 41 6
a 41 32 6
a 32 33 2
a 33 32 2
a 33 42 2
a 42 33 2
a 33 34 6
a 34 33 6
a 34 43 1
a 43 34 1
a 34 35 2
a 35 34 2
a 35 44 6
a 44 35 6
a 35 36 5
a 36 35 5
a 36 45 3
a 45 36 3
a 37 46 6
a 46 37 6
a 37 38 4
a 38 37 4
a 38 47 6
a 47 38 6
a 38 39 1
a 39 38 1
a 39 48 2
a 48 39 2
a 39 40 3
a 40 39 3
a 40 41 6
a 41 40 6
a 41 50 6
a 50 41 6
a 41 42 1
a 42 41 1
a 42 51 1
a 51 42 1
a 42 43 5
a 43 42 5
a 43 44 9
a 44 43 9
a 44 53 2
a 53 44 2
a 44 45 3
a 45 44 3
a 45 54 2
a 54 45 2
a 46 55 9
a 55 46 9
a 46 47 2
a 47 46 2
a 47 56 2
a 56 47 2
a 47 48 2
a 48 47 2
a 48 57 6
a 57 48 6
a 50 59 8
a 59 50 8
a 50 51 2
a 51 50 2
a 51 60 4
a 60 51 4
a 53 62 3
a 62 53 3
a 53 54 10
a 54 53 10
a 54 63 5
a 63 54 5
a 55 64 2
a 64 55 2
a 55 56 6
a 56 55 6
a 56 65 7
a 65 56 7
a 56 57 3
a 57 56 3
a 57 66 9
a 66 57 9
a 57 58 1
a 58 57 1
a 58 67 7
a 67 58 7
a 58 59 7
a 59 58 7
a 59 68 9
a 68 59 9
a 59 60 9
a 60 59 9
a 60 69 6
a 69 60 6
a 60 61 3
a 61 60 3
a 61 70 7
a 70 61 7
a 61 62 5
a 62 61 5
a 62 63 2
a 63 62 2
a 63 72 8
a 72 63 8
a 64 73 1
a 73 64 1
a 64 65 8
a 65 64 8
a 65 74 9
a 74 65 9
a 65 66 9
a 66 65 9
a 66 75 10
a 75 66 10
a 66 67 9
a 67 66 9
a 67 68 4
a 68 67 4
a 68 77 5
a 77 68 5
a 68 69 4
a 69 68 4
a 69 78 2
a 78 69 2
a 69 70 4
a 70 69 4
a 70 79 3
a 79 70 3
a 72 81 7
a 81 72 7
a 73 74 1
a 74 73 1
a 74 75 6
a 75 74 6
a 77 78 6
a 78 77 6
a 78 79 3
a 79 78 3
a 79 80 10
a 80 79 10
a 80 81 4
a 81 80 4
